99
0 288 149 
1 288 129 
2 270 133 
3 256 141 
4 256 157 
5 246 157 
6 236 169 
7 228 169 
8 228 161 
9 220 169 
10 212 169 
11 204 169 
12 196 169 
13 188 169 
14 196 161 
15 188 145 
16 172 145 
17 164 145 
18 156 145 
19 148 145 
20 140 145 
21 148 169 
22 164 169 
23 172 169 
24 156 169 
25 140 169 
26 132 169 
27 124 169 
28 116 161 
29 104 153 
30 104 161 
31 104 169 
32 90 165 
33 80 157 
34 64 157 
35 64 165 
36 56 169 
37 56 161 
38 56 153 
39 56 145 
40 56 137 
41 56 129 
42 56 121 
43 40 121 
44 40 129 
45 40 137 
46 40 145 
47 40 153 
48 40 161 
49 40 169 
50 32 169 
51 32 161 
52 32 153 
53 32 145 
54 32 137 
55 32 129 
56 32 121 
57 32 113 
58 40 113 
59 56 113 
60 56 105 
61 48 99 
62 40 99 
63 32 97 
64 32 89 
65 24 89 
66 16 97 
67 16 109 
68 8 109 
69 8 97 
70 8 89 
71 8 81 
72 8 73 
73 8 65 
74 8 57 
75 16 57 
76 8 49 
77 8 41 
78 24 45 
79 32 41 
80 32 49 
81 32 57 
82 32 65 
83 32 73 
84 32 81 
85 40 83 
86 40 73 
87 40 63 
88 40 51 
89 44 43 
90 44 35 
91 44 27 
92 32 25 
93 24 25 
94 16 25 
95 16 17 
96 24 17 
97 32 17 
98 44 11 
